500
500 500
1 400 607
2 400 305
3 400 766
4 399 251
5 399 237
6 397 183
7 396 337
8 396 913
9 395 974
10 395 101
11 395 799
12 395 490
13 393 574
14 392 27
15 392 575
16 391 691
17 390 845
18 390 157
19 390 300
20 390 641
21 389 780
22 389 880
23 389 471
24 386 138
25 386 368
26 386 710
27 384 173
28 383 834
29 383 220
30 383 39
31 383 703
32 381 541
33 380 257
34 380 71
35 380 372
36 380 596
37 379 98
38 379 749
39 379 804
40 379 664
41 378 804
42 377 291
43 377 119
44 377 284
45 376 333
46 375 599
47 374 98
48 374 454
49 373 543
50 373 390
51 372 644
52 372 207
53 372 434
54 371 572
55 371 327
56 370 213
57 370 712
58 369 251
59 369 48
60 368 196
61 368 584
62 367 825
63 366 27
64 364 183
65 364 834
66 364 5
67 364 614
68 364 619
69 363 1000
70 363 28
71 363 751
72 360 270
73 360 741
74 359 834
75 358 957
76 358 297
77 358 825
78 358 688
79 356 403
80 356 400
81 355 791
82 355 700
83 354 0
84 354 10
85 353 854
86 352 432
87 351 205
88 349 309
89 349 511
90 348 872
91 347 341
92 347 719
93 346 49
94 346 558
95 346 654
96 346 503
97 344 780
98 343 312
99 343 554
100 342 543
101 342 981
102 341 358
103 341 186
104 341 319
105 341 399
106 340 967
107 340 182
108 340 664
109 339 506
110 339 830
111 338 780
112 337 934
113 336 880
114 334 204
115 334 199
116 333 318
117 333 877
118 332 637
119 332 871
120 332 543
121 331 508
122 330 92
123 330 72
124 328 889
125 328 380
126 327 771
127 327 16
128 326 705
129 325 824
130 323 824
131 322 831
132 322 784
133 321 788
134 321 495
135 321 516
136 321 150
137 319 150
138 318 372
139 318 112
140 318 105
141 318 701
142 316 668
143 316 46
144 315 531
145 314 229
146 314 74
147 313 946
148 313 775
149 313 897
150 312 332
151 312 947
152 312 422
153 312 434
154 311 529
155 310 715
156 310 704
157 310 101
158 309 999
159 308 504
160 307 6
161 307 436
162 307 817
163 307 39
164 307 103
165 306 199
166 305 587
167 305 930
168 304 41
169 304 672
170 303 956
171 301 432
172 300 845
173 300 622
174 299 272
175 298 346
176 298 908
177 297 597
178 296 110
179 296 264
180 295 642
181 295 607
182 294 728
183 294 476
184 293 427
185 292 750
186 292 333
187 291 931
188 290 172
189 290 553
190 289 634
191 289 501
192 288 205
193 287 422
194 287 592
195 286 915
196 285 836
197 285 937
198 284 314
199 284 767
200 284 189
201 282 162
202 281 515
203 281 830
204 281 372
205 281 635
206 280 683
207 279 912
208 279 681
209 279 791
210 278 513
211 277 667
212 276 854
213 276 846
214 276 247
215 275 758
216 275 523
217 274 351
218 274 313
219 272 882
220 272 56
221 272 15
222 271 272
223 270 436
224 269 435
225 269 85
226 268 30
227 268 535
228 267 303
229 267 214
230 267 298
231 266 169
232 266 778
233 266 517
234 265 741
235 265 993
236 264 579
237 264 382
238 264 169
239 263 827
240 262 951
241 261 649
242 261 981
243 261 590
244 260 258
245 260 822
246 259 554
247 258 360
248 257 448
249 257 306
250 257 331
251 255 768
252 255 768
253 255 726
254 255 878
255 255 88
256 255 724
257 255 177
258 255 756
259 255 827
260 254 840
261 253 370
262 253 590
263 252 761
264 252 484
265 251 625
266 251 296
267 251 341
268 250 675
269 250 649
270 250 900
271 249 143
272 247 999
273 247 968
274 246 728
275 245 554
276 245 375
277 244 69
278 244 876
279 244 406
280 243 406
281 242 404
282 242 763
283 241 289
284 241 727
285 240 638
286 240 761
287 239 933
288 238 378
289 238 315
290 238 11
291 237 208
292 237 978
293 236 436
294 234 303
295 233 993
296 233 582
297 232 263
298 232 864
299 231 196
300 231 801
301 230 71
302 230 151
303 229 723
304 227 625
305 227 704
306 226 567
307 224 624
308 223 84
309 223 874
310 223 456
311 222 80
312 221 710
313 221 345
314 221 31
315 220 977
316 220 781
317 220 249
318 219 603
319 219 975
320 219 204
321 218 510
322 218 206
323 217 581
324 216 299
325 215 382
326 215 600
327 214 8
328 214 163
329 213 716
330 213 186
331 211 630
332 211 406
333 210 520
334 210 487
335 209 416
336 209 829
337 209 833
338 209 838
339 208 597
340 207 456
341 206 589
342 206 737
343 205 824
344 204 582
345 203 838
346 202 381
347 202 901
348 201 294
349 201 890
350 201 184
351 201 638
352 200 95
353 199 971
354 199 77
355 199 446
356 196 137
357 196 555
358 196 245
359 195 251
360 195 70
361 194 142
362 191 107
363 190 134
364 189 488
365 187 649
366 186 861
367 186 721
368 186 538
369 186 891
370 184 12
371 184 152
372 184 608
373 183 316
374 182 210
375 182 554
376 181 520
377 181 783
378 181 364
379 180 172
380 179 607
381 179 519
382 179 383
383 178 273
384 178 48
385 177 814
386 176 295
387 176 341
388 176 486
389 174 436
390 174 390
391 173 521
392 173 481
393 173 273
394 173 949
395 172 208
396 171 686
397 170 568
398 169 949
399 169 944
400 168 151
401 167 452
402 167 665
403 167 973
404 165 245
405 165 359
406 165 760
407 164 630
408 163 458
409 162 895
410 162 167
411 161 321
412 161 484
413 160 806
414 160 167
415 159 5
416 158 592
417 157 153
418 156 835
419 156 412
420 156 158
421 156 49
422 154 122
423 154 731
424 153 792
425 153 118
426 153 908
427 152 778
428 152 337
429 152 608
430 152 914
431 150 304
432 150 647
433 150 523
434 148 825
435 146 229
436 145 778
437 144 593
438 144 454
439 144 532
440 144 436
441 144 424
442 143 919
443 142 158
444 140 156
445 140 757
446 140 659
447 139 178
448 138 670
449 138 462
450 136 184
451 136 903
452 135 912
453 135 88
454 135 304
455 134 743
456 134 3
457 134 60
458 134 392
459 133 297
460 132 283
461 131 406
462 131 30
463 130 975
464 130 717
465 129 488
466 128 787
467 128 365
468 128 425
469 127 959
470 125 736
471 123 706
472 122 670
473 121 137
474 121 393
475 120 497
476 119 434
477 117 9
478 115 234
479 113 807
480 112 900
481 112 41
482 112 81
483 111 227
484 110 703
485 110 933
486 109 427
487 107 657
488 107 306
489 107 578
490 106 847
491 106 619
492 106 642
493 106 623
494 105 609
495 105 191
496 104 106
497 102 247
498 102 653
499 102 900
500 101 99
